1091
1671
1039
359
496
1587
689
704
187
162
678
937
2209
1284
827
671
2172
1417
1864
1264
2299
1838
1787
160
1586
1413
1630
583
2088
1308
1783
1148
1149
517
2221
862
907
2067
1365
1249
785
2311
1540
2204
147
2221
248
135
1221
602
